(set-logic HORN)
(declare-fun inv (Int Int Int) Bool)
(assert (forall ((z0 Int) (y0 Int) (x0 Int))
  (=> (and (= x0 0) (= y0 767976) (= z0 0)) (inv x0 y0 z0))))
(assert (forall ((z1 Int) (y1 Int) (x1 Int) (z0 Int) (y0 Int) (x0 Int))
  (let ((a!1 (ite (= (mod (- x0 y0) 3) 1) (+ 3 z0) z0)))
    (=> (and (inv x0 y0 z0) (= x1 (+ x0 1)) (= y1 (- y0 1)) (= z1 a!1))
        (inv x1 y1 z1)))))
(assert (forall ((z0 Int) (x0 Int) (y0 Int))
  (=> (and (inv x0 y0 z0) (>= x0 280275) (>= z0 280275)) false)))
(check-sat)
